Version identifier: 20.1.0.0 | 2020-11-10 | 9bedb6d68
CPXPARAM_Threads                                 1
CPXPARAM_TimeLimit                               100
Generic callback                                 0xfe
Tried aggregator 1 time.
MIP Presolve eliminated 4 rows and 12 columns.
MIP Presolve modified 10 coefficients.
Reduced MIP has 158 rows, 1103 columns, and 3144 nonzeros.
Reduced MIP has 1102 binaries, 0 generals, 0 SOSs, and 0 indicators.
Presolve time = 0.00 sec. (1.12 ticks)
Probing time = 0.00 sec. (1.78 ticks)
Tried aggregator 1 time.
Reduced MIP has 158 rows, 1103 columns, and 3144 nonzeros.
Reduced MIP has 1102 binaries, 0 generals, 0 SOSs, and 0 indicators.
Presolve time = 0.00 sec. (1.08 ticks)
Probing time = 0.00 sec. (1.79 ticks)
Clique table members: 1100.
MIP emphasis: balance optimality and feasibility.
MIP search method: dynamic search.
Parallel mode: none, using 1 thread.
Root relaxation solution time = 0.00 sec. (0.50 ticks)

        Nodes                                         Cuts/
   Node  Left     Objective  IInf  Best Integer    Best Bound    ItCnt     Gap

      0     0    15001.2308    10                      0.0000        3         
      0     0    21324.8000    22                     Cuts: 4       18         
      0     0    21444.6000    22                    Fract: 1       19         
*     0+    0                        31775.8400    21444.6000            32.51%

Repeating presolve.
Tried aggregator 2 times.
MIP Presolve eliminated 54 rows and 728 columns.
Aggregator did 10 substitutions.
Reduced MIP has 94 rows, 365 columns, and 994 nonzeros.
Reduced MIP has 364 binaries, 0 generals, 0 SOSs, and 0 indicators.
Presolve time = 0.00 sec. (0.99 ticks)
Probing time = 0.00 sec. (1.33 ticks)
Tried aggregator 1 time.
Reduced MIP has 94 rows, 365 columns, and 994 nonzeros.
Reduced MIP has 364 binaries, 0 generals, 0 SOSs, and 0 indicators.
Presolve time = 0.00 sec. (0.46 ticks)
Represolve time = 0.00 sec. (3.62 ticks)
Probing time = 0.00 sec. (1.39 ticks)
Clique table members: 918.
MIP emphasis: balance optimality and feasibility.
MIP search method: dynamic search.
Parallel mode: none, using 1 thread.
Root relaxation solution time = 0.00 sec. (0.52 ticks)

        Nodes                                         Cuts/
   Node  Left     Objective  IInf  Best Integer    Best Bound    ItCnt     Gap

*     0+    0                        31775.8400    21444.6000            32.51%
      0     0    21757.6531     7    31775.8400    21757.6531       25   31.53%
      0     2    21757.6531    22    31775.8400    21757.6531       25   31.53%
Elapsed time = 1.43 sec. (54.92 ticks, tree = 0.01 MB, solutions = 1)
    228    94    31701.3200     6    31775.8400    24472.7313     1026   22.98%
    363   116    31003.0400     4    31775.8400    27804.8315     1391   12.50%
    465   139        cutoff          31775.8400    28504.4164     1619   10.30%
    542   143        cutoff          31775.8400    30002.6000     1773    5.58%
    627   147    30908.6000     6    31775.8400    30135.8000     1944    5.16%
    687   113        cutoff          31775.8400    30242.2000     2045    4.83%
    743    84        cutoff          31775.8400    30908.6000     2161    2.73%
    807    61        cutoff          31775.8400    30908.6000     2317    2.73%
    896     2        cutoff          31775.8400    31683.9925     2568    0.29%

Mixed integer rounding cuts applied:  1
Gomory fractional cuts applied:  2
User cuts applied:  435

Root node processing (before b&c):
  Real time             =    1.43 sec. (55.31 ticks)
Sequential b&c:
  Real time             =    1.79 sec. (2167.70 ticks)
                          ------------
Total (root+branch&cut) =    3.22 sec. (2223.01 ticks)
SOLUTION ADMISSIBLE TROUVEE 31775.840000043496 31775.84 78.0 85.0
